275
285
267
305
300
363
363
356
334
308
274
313
355
290
334
282
295
295
358
328
243
267
308
297
293
321
344
367
275
347
387
266
315
339
280
251
352
352
337
275
388
352
320
402
249
235
299
317
307
265
257
352
281
401
367
319
325
300
257
365
419
247
282
345
314
269
275
269
312
328
344
388
304
322
312
340
338
182
363
262
358
246
278
379
337
349
358
324
315
277
382
405
311
362
244
300
397
411
401
321
